8
2147483647 15 55 100 4 75 87 42 
15 2147483647 65 99 88 86 80 33 
55 65 2147483647 99 64 48 78 87 
100 99 99 2147483647 63 31 44 3 
4 88 64 63 2147483647 31 10 45 
75 86 48 31 31 2147483647 30 48 
87 80 78 44 10 30 2147483647 97 
42 33 87 3 45 48 97 2147483647 
